15
[[-1, 0, 0, 0, 0, 0, 0, 43961, 45382, 0, 0, 0, 0, 0, 0],[0, -1, 0, 28121, 24580, 0, 0, 0, 21494, 0, 0, 0, 0, 0, 0],[0, 0, -1, 0, 0, 38603, 0, 40363, 0, 32236, 0, 0, 46105, 0, 0],[0, 28121, 0, -1, 0, 0, 24053, 0, 0, 0, 0, 0, 0, 0, 0],[0, 24580, 0, 0, -1, 0, 0, 0, 0, 0, 0, 0, 0, 0, 0],[0, 0, 38603, 0, 0, -1, 7275, 0, 0, 7636, 0, 0, 0, 0, 0],[0, 0, 0, 24053, 0, 7275, -1, 0, 0, 0, 28362, 0, 17016, 0, 0],[43961, 0, 40363, 0, 0, 0, 0, -1, 0, 0, 0, 0, 0, 0, 13909],[45382, 21494, 0, 0, 0, 0, 0, 0, -1, 0, 0, 0, 0, 0, 0],[0, 0, 32236, 0, 0, 7636, 0, 0, 0, -1, 0, 36301, 34741, 14045, 7160],[0, 0, 0, 0, 0, 0, 28362, 0, 0, 0, -1, 0, 0, 0, 0],[0, 0, 0, 0, 0, 0, 0, 0, 0, 36301, 0, -1, 36091, 5130, 0],[0, 0, 46105, 0, 0, 0, 17016, 0, 0, 34741, 0, 36091, -1, 39938, 33298],[0, 0, 0, 0, 0, 0, 0, 0, 0, 14045, 0, 5130, 39938, -1, 0],[0, 0, 0, 0, 0, 0, 0, 13909, 0, 7160, 0, 0, 33298, 0, -1]]